allocation = array3d(trucks, customers, goods,[_,_,0,_,_,_,_,_,0,_,_,_,0,_,_,_,_,1,_,_,_,_,_,0,0,_,_,_,_,_,_,_,_,_,_,_,0,0,_,2,0,_,1,_,_,_,0,_,_,_,_,_,_,_,_,_,1,_,_,0,_,_,0,_,_,_,3,_,_,_,_,0,0,_,_,_,_,0,_,0,_,_,_,_,0,_,_,_,0,_,_,_,0,_,0,_,_,_,1,_,0,0,1,_,_,_,_,_,_,_,_,_,_,_,0,_,_,2,_,_,]);